282 279 278 288 289 290 277 276 275 274 273 292 291 295 296 294 293 270 269 272 271 268 267 266 265 264 263 262 258 259 261 260 257 256 255 253 254 252 251 250 249 248 241 242 243 244 245 247 246 238 239 240 237 236 235 234 232 233 530 531 532 489 488 533 231 230 229 228 227 189 225 226 190 191 192 185 183 184 197 196 195 194 193 219 218 220 221 222 224 223 217 216 215 214 213 212 211 210 209 205 206 207 208 203 204 202 198 199 200 201 165 166 167 163 164 154 160 155 159 156 153 157 158 145 146 144 143 142 147 148 152 149 150 151 141 140 139 138 137 136 135 134 133 132 113 131 130 129 128 127 126 125 124 69 70 68 67 66 65 64 63 61 60 59 58 57 82 83 56 55 53 54 49 48 47 43 44 45 46 91 92 90 85 50 52 51 84 86 87 81 80 79 62 78 88 89 93 94 77 76 75 74 73 72 71 123 122 121 120 119 118 117 116 115 114 112 161 162 168 169 180 181 179 178 182 186 188 187 538 537 539 540 176 177 175 171 170 172 174 173 108 109 111 110 107 106 105 104 103 542 541 543 544 547 546 545 548 549 564 563 562 561 560 558 559 550 551 101 100 102 96 95 97 98 99 552 553 554 555 556 557 40 41 42 39 38 37 36 35 34 33 32 30 31 22 23 12 13 21 24 25 28 29 27 26 567 565 566 478 477 479 480 476 475 482 481 483 485 484 536 535 534 487 486 490 529 528 527 512 513 511 510 509 506 507 508 302 301 300 299 298 297 321 320 319 317 318 305 306 304 303 307 308 505 504 503 502 516 515 514 517 519 518 520 521 522 523 526 491 492 493 525 524 494 495 470 471 472 473 474 570 569 568 20 19 18 17 16 15 14 11 10 9 8 7 6 5 4 3 2 1 0 573 572 571 468 469 467 466 465 464 496 497 498 501 500 499 453 452 461 462 463 460 459 458 457 456 455 454 439 442 443 444 445 446 447 448 449 440 441 450 451 312 311 310 309 313 316 314 315 374 375 376 377 378 379 380 381 390 389 388 391 392 393 394 395 396 371 372 373 322 323 324 325 326 329 328 327 367 366 342 365 368 369 370 398 397 399 400 401 402 403 404 405 406 407 408 409 384 383 385 387 386 382 431 433 434 435 436 438 437 432 430 429 428 427 426 425 424 423 422 421 420 419 417 418 410 411 412 356 357 355 354 353 413 414 416 415 352 351 350 349 348 347 362 361 358 359 360 363 364 346 345 344 343 341 340 330 331 332 333 339 338 337 336 335 334 283 284 285 286 287 280 281